n_res = 4;
rc = [ 15, 15, 18, 17 ];
n_tasks = 30;
d = [ 7, 4, 4, 2, 3, 10, 3, 3, 3, 10, 3, 8, 5, 7, 5, 4, 1, 5, 9, 6, 5, 10, 2, 9, 4, 2, 10, 8, 2, 4 ];
rr = [| 2, 5, 7, 4, 2, 8, 9, 3, 7, 3, 3, 7, 10, 5, 8, 1, 5, 4, 8, 3, 1, 2, 7, 7, 5, 10, 9, 2, 2, 2
      | 1, 1, 6, 6, 3, 4, 9, 7, 2, 3, 4, 4, 6, 5, 2, 3, 7, 4, 8, 9, 1, 2, 3, 10, 7, 9, 4, 10, 9, 1
      | 5, 4, 1, 5, 2, 2, 3, 5, 7, 10, 10, 3, 3, 4, 4, 9, 8, 6, 9, 7, 7, 8, 5, 7, 8, 5, 1, 10, 4, 2
      | 5, 10, 4, 5, 5, 7, 1, 5, 2, 9, 5, 8, 8, 2, 7, 6, 10, 10, 10, 1, 6, 9, 5, 8, 3, 3, 1, 1, 3, 2 |];
suc = [ { 2 }, 
        { 3 }, 
        { 4 }, 
        { 5 }, 
        { 6 }, 
        { 7 }, 
        { 8 }, 
        { 9 }, 
        { 10 }, 
        { 11 }, 
        { 12 }, 
        { 13 }, 
        { 14 }, 
        { 15 }, 
        { 16 }, 
        { 17 }, 
        { 18 }, 
        { 19 }, 
        { 20 }, 
        { 21 }, 
        { 22 }, 
        { 23 }, 
        { 24 }, 
        { 25 }, 
        { 26 }, 
        { 27 }, 
        { 28 }, 
        { 29 }, 
        { 30 }, 
        {  }]; 
